45
19
0 21 23 24 26 30 33 34 36 38 39 40 43 44
1 19 21 23 24 28 33 35 39 40 41 43 44
2 19 20 21 22 24 25 27 39 40 42 43
3 19 20 21 23 24 25 26 28 31 32 33 35 37 38 39 41 42 44
4 20 21 22 23 24 25 31 33 37 38 39 40 41 42 43 44
5 19 20 21 23 25 26 33 35 39 40 43
6 19 20 21 23 24 26 28 33 35 44
7 19 23 24 28 30 31 33 36 38 39 40 43
8 19 21 22 23 24 33 35 36 38 40 43
9 19 20 21 22 23 24 32 33 34 40 41 42
10 26 30 32 34 38 39 41 43 44
11 21 30 31 35 40 41 43
12 19 26 32 34 39 40 43 44
13 19 29 30 31 33 38 39 42
14 25 33 35 36 41 43
15 19 20 22 23 28 31 38 39 43
16 24 28 31 39
17 21
18 33 37
